c
c start with comments
c
p cnf 27 18
-3 -25 -16 0
-7 4 12 0
18 5 -21 -21 22 0
-19 1 28 0
-8 -23 25 0
14 6 -20 0
3 -18 0
-9 17 0
-1 -15 14 0
-21 -24 -10 0
-13 11 0
-26 12 -24 9 18 25 0
-7 -21 13 -4 13 0
-12 -14 0
-8 -10 -26 24 -16 0
-19 10 -27 -6 0
-22 27 -24 -16 0
23 -17 0